computational_data/solutions/S60.sol
Optimal - objective value 59.00000000
      1 r_1                         1                       1
      3 r_3                         1                       1
      7 r_7                         1                       1
     11 r_11                        1                       1
     12 r_12                        1                       1
     13 r_13                        1                       1
     14 r_14                        1                       1
     15 r_15                        1                       1
     17 r_17                        1                       1
     18 r_18                        1                       1
     20 r_20                        1                       1
     24 r_24                        1                       1
     25 r_25                        1                       1
     28 r_28                        1                       1
     34 r_34                        1                       1
     38 r_38                        1                       1
     40 r_40                        1                       1
     47 r_47                        1                       1
     50 r_50                        1                       1
     53 r_53                        1                       1
     54 r_54                        1                       1
     57 r_57                        1                       1
     58 r_58                        1                       1
     62 b_2                         1                       1
     64 b_4                         1                       1
     65 b_5                         1                       1
     66 b_6                         1                       1
     68 b_8                         1                       1
     69 b_9                         1                       1
     70 b_10                        1                       1
     76 b_16                        1                       1
     79 b_19                        1                       1
     81 b_21                        1                       1
     82 b_22                        1                       1
     83 b_23                        1                       1
     86 b_26                        1                       1
     87 b_27                        1                       1
     89 b_29                        1                       1
     90 b_30                        1                       1
     91 b_31                        1                       1
     92 b_32                        1                       1
     93 b_33                        1                       1
     95 b_35                        1                       1
     96 b_36                        1                       1
     97 b_37                        1                       1
     99 b_39                        1                       1
    101 b_41                        1                       1
    102 b_42                        1                       1
    103 b_43                        1                       1
    104 b_44                        1                       1
    105 b_45                        1                       1
    106 b_46                        1                       1
    108 b_48                        1                       1
    109 b_49                        1                       1
    111 b_51                        1                       1
    112 b_52                        1                       1
    115 b_55                        1                       1
    116 b_56                        1                       1
    119 b_59                        1                       1
