computational_data/logs/S60.log
Welcome to the CBC MILP Solver 
Version: 2.10.12 
Build Date: Aug 20 2024 

command line - /opt/homebrew/bin/cbc computational_data/lp/S60.lp seconds 10.0 solve solu computational_data/solutions/S60.sol (default strategy 1)
seconds was changed from 1e+100 to 10
Continuous objective value is 30.5 - 0.00 seconds
Cgl0004I processed model has 300 rows, 120 columns (120 integer (120 of which binary)) and 952 elements
Cutoff increment increased from 1e-05 to 0.9999
Cbc0038I Initial state - 61 integers unsatisfied sum - 30.5
Cbc0038I Pass   1: suminf.   30.50000 (61) obj. 30.5 iterations 29
Cbc0038I Pass   2: suminf.   30.50000 (61) obj. 30.5 iterations 43
Cbc0038I Pass   3: suminf.    0.00000 (0) obj. 59 iterations 70
Cbc0038I Solution found of 59
Cbc0038I Before mini branch and bound, 24 integers at bound fixed and 0 continuous
Cbc0038I Full problem 300 rows 120 columns, reduced to 252 rows 96 columns - 13 fixed gives 0, 0 - ok now
Cbc0038I Full problem 300 rows 120 columns, reduced to 0 rows 0 columns
Cbc0038I Mini branch and bound did not improve solution (0.00 seconds)
Cbc0038I Round again with cutoff of 55.2501
Cbc0038I Pass   4: suminf.   30.50000 (61) obj. 30.5 iterations 0
Cbc0038I Pass   5: suminf.   30.50000 (61) obj. 30.5 iterations 28
Cbc0038I Pass   6: suminf.    5.66476 (71) obj. 55.2501 iterations 64
Cbc0038I Pass   7: suminf.    4.01306 (61) obj. 55.2501 iterations 52
Cbc0038I Pass   8: suminf.    4.01306 (61) obj. 55.2501 iterations 66
Cbc0038I Pass   9: suminf.    4.01306 (61) obj. 55.2501 iterations 40
Cbc0038I Pass  10: suminf.    4.01306 (61) obj. 55.2501 iterations 47
Cbc0038I Pass  11: suminf.    4.01306 (61) obj. 55.2501 iterations 42
Cbc0038I Pass  12: suminf.    4.01306 (61) obj. 55.2501 iterations 41
Cbc0038I Pass  13: suminf.    4.92635 (67) obj. 55.2501 iterations 40
Cbc0038I Pass  14: suminf.    4.01306 (61) obj. 55.2501 iterations 44
Cbc0038I Pass  15: suminf.    4.01306 (61) obj. 55.2501 iterations 60
Cbc0038I Pass  16: suminf.    4.01306 (61) obj. 55.2501 iterations 39
Cbc0038I Pass  17: suminf.    4.01306 (61) obj. 55.2501 iterations 41
Cbc0038I Pass  18: suminf.    4.92635 (67) obj. 55.2501 iterations 34
Cbc0038I Pass  19: suminf.    4.01306 (61) obj. 55.2501 iterations 43
Cbc0038I Pass  20: suminf.    7.80917 (79) obj. 55.2501 iterations 85
Cbc0038I Pass  21: suminf.    5.07194 (62) obj. 55.2501 iterations 42
Cbc0038I Pass  22: suminf.    4.01306 (61) obj. 55.2501 iterations 49
Cbc0038I Pass  23: suminf.    4.01306 (61) obj. 55.2501 iterations 39
Cbc0038I Pass  24: suminf.    6.36005 (70) obj. 55.2501 iterations 59
Cbc0038I Pass  25: suminf.    4.75950 (66) obj. 55.2501 iterations 49
Cbc0038I Pass  26: suminf.    4.01306 (61) obj. 55.2501 iterations 42
Cbc0038I Pass  27: suminf.    4.01306 (61) obj. 55.2501 iterations 59
Cbc0038I Pass  28: suminf.    4.01306 (61) obj. 55.2501 iterations 43
Cbc0038I Pass  29: suminf.    6.68208 (72) obj. 55.2501 iterations 58
Cbc0038I Pass  30: suminf.    5.07194 (62) obj. 55.2501 iterations 44
Cbc0038I Pass  31: suminf.    4.01306 (61) obj. 55.2501 iterations 49
Cbc0038I Pass  32: suminf.    4.01306 (61) obj. 55.2501 iterations 41
Cbc0038I Pass  33: suminf.    6.84309 (73) obj. 55.2501 iterations 57
Cbc0038I No solution found this major pass
Cbc0038I Before mini branch and bound, 7 integers at bound fixed and 0 continuous
Cbc0038I Full problem 300 rows 120 columns, reduced to 286 rows 113 columns - 16 fixed gives 0, 0 - ok now
Cbc0038I Mini branch and bound did not improve solution (0.02 seconds)
Cbc0038I After 0.02 seconds - Feasibility pump exiting with objective of 59 - took 0.02 seconds
Cbc0012I Integer solution of 59 found by feasibility pump after 0 iterations and 0 nodes (0.02 seconds)
Cbc0038I Full problem 300 rows 120 columns, reduced to 240 rows 90 columns - 59 fixed gives 0, 0 - ok now
Cbc0031I 57 added rows had average density of 2
Cbc0013I At root node, 60 cuts changed objective from 30.5 to 59 in 1 passes
Cbc0014I Cut generator 0 (Probing) - 0 row cuts average 0.0 elements, 0 column cuts (0 active)  in 0.000 seconds - new frequency is -100
Cbc0014I Cut generator 1 (Gomory) - 1 row cuts average 2.0 elements, 0 column cuts (0 active)  in 0.000 seconds - new frequency is -100
Cbc0014I Cut generator 2 (Knapsack) - 0 row cuts average 0.0 elements, 0 column cuts (0 active)  in 0.000 seconds - new frequency is -100
Cbc0014I Cut generator 3 (Clique) - 0 row cuts average 0.0 elements, 0 column cuts (0 active)  in 0.000 seconds - new frequency is -100
Cbc0014I Cut generator 4 (MixedIntegerRounding2) - 0 row cuts average 0.0 elements, 0 column cuts (0 active)  in 0.000 seconds - new frequency is -100
Cbc0014I Cut generator 5 (FlowCover) - 0 row cuts average 0.0 elements, 0 column cuts (0 active)  in 0.000 seconds - new frequency is -100
Cbc0014I Cut generator 6 (TwoMirCuts) - 1 row cuts average 2.0 elements, 0 column cuts (0 active)  in 0.000 seconds - new frequency is -100
Cbc0014I Cut generator 7 (ZeroHalf) - 58 row cuts average 2.0 elements, 0 column cuts (0 active)  in 0.000 seconds - new frequency is 1
Cbc0001I Search completed - best objective 59, took 0 iterations and 0 nodes (0.04 seconds)
Cbc0035I Maximum depth 0, 0 variables fixed on reduced cost
Cuts at root node changed objective from 30.5 to 59
Probing was tried 1 times and created 0 cuts of which 0 were active after adding rounds of cuts (0.000 seconds)
Gomory was tried 1 times and created 1 cuts of which 0 were active after adding rounds of cuts (0.000 seconds)
Knapsack was tried 1 times and created 0 cuts of which 0 were active after adding rounds of cuts (0.000 seconds)
Clique was tried 1 times and created 0 cuts of which 0 were active after adding rounds of cuts (0.000 seconds)
MixedIntegerRounding2 was tried 1 times and created 0 cuts of which 0 were active after adding rounds of cuts (0.000 seconds)
FlowCover was tried 1 times and created 0 cuts of which 0 were active after adding rounds of cuts (0.000 seconds)
TwoMirCuts was tried 1 times and created 1 cuts of which 0 were active after adding rounds of cuts (0.000 seconds)
ZeroHalf was tried 1 times and created 58 cuts of which 0 were active after adding rounds of cuts (0.000 seconds)

Result - Optimal solution found

Objective value:                59.00000000
Enumerated nodes:               0
Total iterations:               0
Time (CPU seconds):             0.04
Time (Wallclock seconds):       0.04

Total time (CPU seconds):       0.04   (Wallclock seconds):       0.04

